NAME: random_points
TYPE: TSP
DIMENSION: 16
EDGE_WEIGHT_TYPE: EUC_2D
NODE_COORD_SECTION
1 457 867
2 547 400
3 882 613
4 838 241
5 152 561
6 300 98
7 891 93
8 104 6
9 335 576
10 56 146
11 659 409
12 925 330
13 896 657
14 291 702
15 217 503
16 683 5
EOF
